proyfinal/src/viki/013/andrea/andrea-localstore/experimentInOfficeAgust.take6/worker_10/aa64d086-1cb8-4bd6-b74e-aaf95e632ff3.als.cnf.out
Reading from standard input... Use '--help' for help.
============================[ Problem Statistics ]=============================
|                                                                             |
|  Number of variables:         87638                                         |
|  Number of clauses:          161767                                         |
|  Parse time:                   0.04 s                                       |
|                                                                             |
============================[ Search Statistics ]==============================
| Conflicts |          ORIGINAL         |          LEARNT          | Progress |
|           |    Vars  Clauses Literals |    Limit  Clauses Lit/Cl |          |
===============================================================================
|       100 |   63145   107990   269761 |    39596      100     11 | 27.948 % |
|       250 |   63145   107990   269761 |    43555      250     38 | 27.948 % |
|       475 |   63144   107946   269671 |    47911      474     50 | 27.949 % |
|       812 |   63144   107946   269671 |    52702      811     43 | 27.949 % |
|      1318 |   63144   107946   269671 |    57972     1317     88 | 27.949 % |
|      2077 |   63144   107946   269671 |    63770     2076     95 | 27.949 % |
|      3216 |   63144   107946   269671 |    70147     3215    106 | 27.949 % |
|      4924 |   54568    82612   207538 |    77162     4910     99 | 37.735 % |
|      7486 |   54524    82440   207180 |    84878     7460     89 | 37.785 % |
|     11330 |   54234    81155   204167 |    93366    10549     80 | 38.116 % |
|     17096 |   54162    80853   203461 |   102702    16289     85 | 38.198 % |
===============================================================================
restarts              : 78
conflicts             : 22106          (7487 /sec)
decisions             : 80213          (0.00 % random) (27167 /sec)
propagations          : 31038778       (10512322 /sec)
conflict literals     : 1963513        (41.50 % deleted)
Memory used           : 38.49 MB
CPU time              : 2.95261 s

INDETERMINATE
